c File: data_files/evolved_graphs/g6179.col
c
c Auto generated graph
c
p edge 100 870
e 1 4
e 1 15
e 1 22
e 1 31
e 1 38
e 1 47
e 1 54
e 1 58
e 1 62
e 1 69
e 1 72
e 1 74
e 1 82
e 1 84
e 1 85
e 1 91
e 1 94
e 1 99
e 2 7
e 2 23
e 2 24
e 2 34
e 2 43
e 2 45
e 2 59
e 2 66
e 2 70
e 2 72
e 2 81
e 2 82
e 2 84
e 2 87
e 2 90
e 2 93
e 3 4
e 3 6
e 3 22
e 3 36
e 3 41
e 3 53
e 3 56
e 3 57
e 3 62
e 3 69
e 3 73
e 3 76
e 3 79
e 3 83
e 3 94
e 3 98
e 4 10
e 4 34
e 4 36
e 4 37
e 4 43
e 4 49
e 4 51
e 4 57
e 4 61
e 4 83
e 4 88
e 5 11
e 5 29
e 5 31
e 5 32
e 5 34
e 5 36
e 5 42
e 5 46
e 5 57
e 5 63
e 5 69
e 5 80
e 5 83
e 5 90
e 5 92
e 6 9
e 6 18
e 6 21
e 6 31
e 6 33
e 6 34
e 6 39
e 6 45
e 6 50
e 6 65
e 6 71
e 6 74
e 6 76
e 6 78
e 6 90
e 6 91
e 6 93
e 6 94
e 7 20
e 7 29
e 7 31
e 7 33
e 7 34
e 7 41
e 7 44
e 7 53
e 7 54
e 7 59
e 7 73
e 7 75
e 7 77
e 7 81
e 7 82
e 7 88
e 7 96
e 8 14
e 8 28
e 8 33
e 8 52
e 8 53
e 8 56
e 8 64
e 8 67
e 8 74
e 8 75
e 8 81
e 8 92
e 8 96
e 8 97
e 8 99
e 9 11
e 9 14
e 9 20
e 9 26
e 9 29
e 9 33
e 9 36
e 9 38
e 9 55
e 9 60
e 9 61
e 9 63
e 9 68
e 9 74
e 9 77
e 9 89
e 9 93
e 10 15
e 10 20
e 10 32
e 10 33
e 10 40
e 10 44
e 10 47
e 10 57
e 10 66
e 10 73
e 10 75
e 10 86
e 10 97
e 10 100
e 11 12
e 11 21
e 11 32
e 11 34
e 11 35
e 11 37
e 11 43
e 11 47
e 11 55
e 11 59
e 11 64
e 11 80
e 11 94
e 12 59
e 12 62
e 12 65
e 12 67
e 12 68
e 12 70
e 12 72
e 12 74
e 12 85
e 12 87
e 12 96
e 12 97
e 12 98
e 13 16
e 13 20
e 13 26
e 13 31
e 13 35
e 13 52
e 13 57
e 13 58
e 13 67
e 13 68
e 13 69
e 13 72
e 13 73
e 13 86
e 13 93
e 13 94
e 13 99
e 13 100
e 14 15
e 14 27
e 14 33
e 14 43
e 14 52
e 14 57
e 14 63
e 14 67
e 14 72
e 14 73
e 14 77
e 14 82
e 14 90
e 14 92
e 15 22
e 15 30
e 15 31
e 15 38
e 15 45
e 15 48
e 15 57
e 15 64
e 15 65
e 15 73
e 15 77
e 15 87
e 15 89
e 15 91
e 15 97
e 16 25
e 16 27
e 16 28
e 16 38
e 16 39
e 16 42
e 16 49
e 16 54
e 16 66
e 16 69
e 16 73
e 16 74
e 16 83
e 16 87
e 16 88
e 17 32
e 17 35
e 17 50
e 17 51
e 17 53
e 17 55
e 17 58
e 17 63
e 17 66
e 17 67
e 17 69
e 17 72
e 17 75
e 17 82
e 17 88
e 17 89
e 18 26
e 18 27
e 18 29
e 18 34
e 18 35
e 18 41
e 18 42
e 18 45
e 18 48
e 18 58
e 18 61
e 18 70
e 18 72
e 18 74
e 18 75
e 18 84
e 18 86
e 18 92
e 19 23
e 19 26
e 19 27
e 19 33
e 19 37
e 19 38
e 19 40
e 19 41
e 19 45
e 19 49
e 19 51
e 19 53
e 19 55
e 19 59
e 19 85
e 19 86
e 19 92
e 19 94
e 19 95
e 19 96
e 20 25
e 20 26
e 20 44
e 20 51
e 20 55
e 20 56
e 20 58
e 20 65
e 20 67
e 20 69
e 20 76
e 20 77
e 20 83
e 20 85
e 20 87
e 20 97
e 20 100
e 21 25
e 21 31
e 21 39
e 21 42
e 21 46
e 21 47
e 21 51
e 21 53
e 21 56
e 21 61
e 21 62
e 21 63
e 21 65
e 21 66
e 21 72
e 21 81
e 21 86
e 21 90
e 22 25
e 22 32
e 22 39
e 22 40
e 22 41
e 22 42
e 22 43
e 22 47
e 22 48
e 22 49
e 22 52
e 22 55
e 22 56
e 22 59
e 22 65
e 22 66
e 22 68
e 22 72
e 22 81
e 22 84
e 22 89
e 23 25
e 23 26
e 23 27
e 23 32
e 23 36
e 23 41
e 23 45
e 23 47
e 23 50
e 23 52
e 23 54
e 23 60
e 23 63
e 23 65
e 23 71
e 23 72
e 23 77
e 23 98
e 24 25
e 24 36
e 24 42
e 24 43
e 24 46
e 24 47
e 24 49
e 24 58
e 24 61
e 24 63
e 24 67
e 24 68
e 24 71
e 24 79
e 24 81
e 24 82
e 24 96
e 25 37
e 25 39
e 25 42
e 25 47
e 25 48
e 25 50
e 25 52
e 25 55
e 25 63
e 25 72
e 25 79
e 25 85
e 25 90
e 25 96
e 25 97
e 26 32
e 26 33
e 26 40
e 26 43
e 26 44
e 26 51
e 26 52
e 26 53
e 26 60
e 26 61
e 26 68
e 26 73
e 26 76
e 26 78
e 26 84
e 26 98
e 27 28
e 27 32
e 27 34
e 27 44
e 27 46
e 27 47
e 27 48
e 27 49
e 27 56
e 27 64
e 27 67
e 27 69
e 27 72
e 27 73
e 27 74
e 27 75
e 27 79
e 27 80
e 27 85
e 28 30
e 28 38
e 28 46
e 28 48
e 28 51
e 28 56
e 28 58
e 28 67
e 28 70
e 28 71
e 28 74
e 28 83
e 28 84
e 29 30
e 29 34
e 29 41
e 29 49
e 29 66
e 29 69
e 29 76
e 29 79
e 29 84
e 29 85
e 30 35
e 30 47
e 30 51
e 30 52
e 30 53
e 30 65
e 30 79
e 30 82
e 30 83
e 30 84
e 31 33
e 31 35
e 31 46
e 31 47
e 31 54
e 31 67
e 31 68
e 31 84
e 31 87
e 31 98
e 32 54
e 32 57
e 32 59
e 32 60
e 32 64
e 32 66
e 32 76
e 32 80
e 32 82
e 32 96
e 33 37
e 33 50
e 33 51
e 33 52
e 33 59
e 33 79
e 34 48
e 34 51
e 34 53
e 34 55
e 34 69
e 34 71
e 34 78
e 34 91
e 34 97
e 35 38
e 35 44
e 35 51
e 35 55
e 35 59
e 35 61
e 35 75
e 35 83
e 35 91
e 36 37
e 36 45
e 36 47
e 36 52
e 36 55
e 36 60
e 36 63
e 36 73
e 36 78
e 36 81
e 36 83
e 36 84
e 37 46
e 37 53
e 37 55
e 37 57
e 37 67
e 37 70
e 37 84
e 37 89
e 37 91
e 38 44
e 38 45
e 38 49
e 38 55
e 38 63
e 38 66
e 38 98
e 39 44
e 39 55
e 39 60
e 39 66
e 39 82
e 39 83
e 39 91
e 39 92
e 39 94
e 39 95
e 39 98
e 40 46
e 40 48
e 40 49
e 40 55
e 40 59
e 40 61
e 40 78
e 40 81
e 40 90
e 40 92
e 40 98
e 40 99
e 40 100
e 41 43
e 41 48
e 41 50
e 41 56
e 41 59
e 41 60
e 41 66
e 41 86
e 41 92
e 42 43
e 42 53
e 42 54
e 42 56
e 42 59
e 42 66
e 42 68
e 42 71
e 42 78
e 42 79
e 42 83
e 42 97
e 43 51
e 43 54
e 43 70
e 43 74
e 43 88
e 43 89
e 43 92
e 43 93
e 44 50
e 44 64
e 44 69
e 44 70
e 44 75
e 44 76
e 44 78
e 44 81
e 44 83
e 44 86
e 44 92
e 45 55
e 45 64
e 45 65
e 45 68
e 45 83
e 45 84
e 45 93
e 45 95
e 46 61
e 46 63
e 46 64
e 46 65
e 46 66
e 46 67
e 46 79
e 46 82
e 46 85
e 46 92
e 46 98
e 46 99
e 47 50
e 47 67
e 47 73
e 47 78
e 47 82
e 47 84
e 47 92
e 47 100
e 48 50
e 48 53
e 48 81
e 48 83
e 48 85
e 49 50
e 49 58
e 49 61
e 49 69
e 49 74
e 49 81
e 50 68
e 50 69
e 50 78
e 50 82
e 50 85
e 50 95
e 51 69
e 51 79
e 51 80
e 51 87
e 51 95
e 51 96
e 52 61
e 52 64
e 52 65
e 52 68
e 52 70
e 52 73
e 52 84
e 52 85
e 52 88
e 52 94
e 53 62
e 53 68
e 53 72
e 53 73
e 53 81
e 53 97
e 54 70
e 54 77
e 54 81
e 54 88
e 54 98
e 54 100
e 55 60
e 55 62
e 55 70
e 55 75
e 55 95
e 55 99
e 56 61
e 56 62
e 56 69
e 56 71
e 56 77
e 56 81
e 56 93
e 56 94
e 56 95
e 56 97
e 57 68
e 57 70
e 57 71
e 57 82
e 57 86
e 57 93
e 57 95
e 57 98
e 58 62
e 58 66
e 58 70
e 58 71
e 58 73
e 58 77
e 58 80
e 58 99
e 58 100
e 59 65
e 59 72
e 59 74
e 59 91
e 60 62
e 60 82
e 60 91
e 60 93
e 60 96
e 60 97
e 61 77
e 61 88
e 61 91
e 61 95
e 62 64
e 62 69
e 62 70
e 62 85
e 62 87
e 62 90
e 62 92
e 62 100
e 63 71
e 63 72
e 63 75
e 63 81
e 63 85
e 63 87
e 63 88
e 64 72
e 64 78
e 64 79
e 64 96
e 64 100
e 65 69
e 65 71
e 65 88
e 65 97
e 65 99
e 66 73
e 66 91
e 66 97
e 66 98
e 67 76
e 67 91
e 67 93
e 67 96
e 67 100
e 68 75
e 68 89
e 68 93
e 68 98
e 69 78
e 69 89
e 69 91
e 69 94
e 70 81
e 71 75
e 71 89
e 71 98
e 71 99
e 71 100
e 72 79
e 72 86
e 72 99
e 73 76
e 73 87
e 73 90
e 73 99
e 74 75
e 74 84
e 74 89
e 74 90
e 74 92
e 74 93
e 74 96
e 74 99
e 75 88
e 75 89
e 75 90
e 75 91
e 75 92
e 75 98
e 76 84
e 76 95
e 76 99
e 77 80
e 77 83
e 77 89
e 77 90
e 77 95
e 78 84
e 78 88
e 78 89
e 78 90
e 78 95
e 78 97
e 79 80
e 79 89
e 79 93
e 79 96
e 79 98
e 79 99
e 80 81
e 80 83
e 80 88
e 80 89
e 80 93
e 80 94
e 80 95
e 80 99
e 81 83
e 81 87
e 81 91
e 81 93
e 81 94
e 82 92
e 82 93
e 82 94
e 82 96
e 82 98
e 82 99
e 83 90
e 83 91
e 83 98
e 84 85
e 84 91
e 84 95
e 85 88
e 85 90
e 85 91
e 85 97
e 85 100
e 86 94
e 86 95
e 86 96
e 86 100
e 87 92
e 87 95
e 87 96
e 87 100
e 88 93
e 88 94
e 88 95
e 88 100
e 89 92
e 89 94
e 90 96
e 91 93
e 91 97
e 93 99
e 93 100
e 94 96
e 97 99
e 98 99
